55
1 0 1
2 1 1
3 0 3
4 1 5
4 2 2
5 1 2
5 2 4
6 0 3
6 2 5
6 3 2
7 2 4
7 3 2
7 6 5
8 2 1
8 4 2
8 5 4
9 0 3
9 1 3
9 3 2
9 4 1
9 6 4
9 7 5
10 0 3
10 1 1
10 2 1
10 5 1
11 3 1
11 4 4
11 9 4
11 10 1
12 5 2
12 9 4
12 10 1
12 11 1
13 0 1
13 1 5
13 2 2
13 5 1
13 8 3
14 1 5
14 2 5
14 4 1
14 5 4
14 8 4
14 11 1
15 1 3
15 4 1
15 6 3
15 7 4
15 9 2
15 10 5
15 11 3
15 12 5
15 13 2
16 0 1
16 1 2
16 4 2
16 6 4
16 9 5
16 10 1
16 14 5
17 3 2
17 8 1
17 10 5
17 12 3
17 13 4
17 16 1
18 1 4
18 2 2
18 5 3
18 6 4
18 8 1
18 9 2
18 11 2
18 14 4
18 15 5
18 16 2
18 17 3
19 0 1
19 3 4
19 5 2
19 8 1
19 9 4
19 14 3
19 15 4
19 17 1
20 2 1
20 5 1
20 10 4
20 12 4
20 13 5
20 14 2
20 16 2
20 19 1
21 5 5
21 6 3
21 7 3
21 8 2
21 11 4
21 12 4
21 14 4
21 15 1
21 16 1
21 17 5
21 18 4
21 19 4
21 20 4
22 0 1
22 1 5
22 5 5
22 8 4
22 9 2
22 10 3
22 11 5
22 13 4
22 15 3
22 18 5
22 19 3
22 20 5
23 0 4
23 1 2
23 4 3
23 7 4
23 8 1
23 9 1
23 12 2
23 13 5
23 16 2
23 19 2
23 22 1
24 5 3
24 9 3
24 11 5
24 13 1
24 14 1
24 15 2
24 16 1
24 17 3
24 22 5
25 3 3
25 5 5
25 6 5
25 7 4
25 13 1
25 14 1
25 15 4
25 17 4
25 18 4
25 19 3
25 20 2
25 21 1
25 22 4
26 0 4
26 1 3
26 2 3
26 3 5
26 4 4
26 6 2
26 7 4
26 10 3
26 11 2
26 12 4
26 14 3
26 17 5
26 18 1
26 21 3
26 23 1
26 24 2
26 25 4
27 0 4
27 1 2
27 2 5
27 3 3
27 6 3
27 8 3
27 9 4
27 10 5
27 11 4
27 15 3
27 17 2
27 18 4
27 19 2
27 20 4
27 21 2
27 22 4
27 23 1
27 24 3
27 25 5
27 26 4
28 3 4
28 6 3
28 7 5
28 9 5
28 14 3
28 16 1
28 18 4
28 19 4
28 20 5
28 21 5
28 23 4
28 27 3
29 0 2
29 4 4
29 7 5
29 8 5
29 10 4
29 12 4
29 14 1
29 15 5
29 17 5
29 18 1
29 20 5
29 25 3
29 27 5
29 28 3
30 0 1
30 2 4
30 3 5
30 5 4
30 6 4
30 14 4
30 17 4
30 19 1
30 20 1
30 21 5
30 22 1
30 23 4
30 25 4
30 28 3
30 29 2
31 1 4
31 2 1
31 5 4
31 7 1
31 9 4
31 10 1
31 11 5
31 13 1
31 18 2
31 20 2
31 22 5
31 23 5
31 25 2
31 26 2
31 27 5
31 29 5
31 30 3
32 1 5
32 2 5
32 3 5
32 4 5
32 11 2
32 13 1
32 14 5
32 21 4
32 22 3
32 23 3
32 24 3
32 25 2
32 27 5
32 30 1
32 31 2
33 0 2
33 1 2
33 2 5
33 5 2
33 6 2
33 9 4
33 10 5
33 13 5
33 16 4
33 17 5
33 18 4
33 20 1
33 22 5
33 23 2
33 30 2
33 32 5
34 0 2
34 1 1
34 3 2
34 7 4
34 8 3
34 9 4
34 10 3
34 12 3
34 14 4
34 15 2
34 17 1
34 22 3
34 23 1
34 25 1
34 26 4
34 27 1
34 30 3
34 31 4
34 32 5
35 0 5
35 1 4
35 2 5
35 3 2
35 7 2
35 9 3
35 11 2
35 14 2
35 18 5
35 21 1
35 22 3
35 24 5
35 25 1
35 27 5
35 33 2
36 0 3
36 1 5
36 9 5
36 10 2
36 12 3
36 14 1
36 15 2
36 18 3
36 19 1
36 21 3
36 22 4
36 24 3
36 25 1
36 26 4
36 31 1
36 34 3
37 0 5
37 4 4
37 7 1
37 10 5
37 11 5
37 14 3
37 16 3
37 19 1
37 23 4
37 28 2
37 29 3
37 30 1
37 31 2
37 32 2
37 34 2
37 35 5
37 36 5
38 0 1
38 1 1
38 3 2
38 4 1
38 5 3
38 6 1
38 7 5
38 9 4
38 11 5
38 12 2
38 14 1
38 17 5
38 19 5
38 25 2
38 27 3
38 31 4
38 32 5
38 36 1
39 1 2
39 2 1
39 3 1
39 4 2
39 7 1
39 9 1
39 11 4
39 18 3
39 19 1
39 20 2
39 22 5
39 24 5
39 27 4
39 28 2
39 29 5
39 30 4
39 31 2
39 32 3
39 33 5
40 1 2
40 5 5
40 7 2
40 8 2
40 9 5
40 10 2
40 12 5
40 15 4
40 18 1
40 19 1
40 22 4
40 25 5
40 28 3
40 32 1
40 33 5
40 34 5
40 35 4
40 36 1
40 38 3
40 39 5
41 0 3
41 3 4
41 4 4
41 5 5
41 10 4
41 17 2
41 18 5
41 22 5
41 23 3
41 24 1
41 25 4
41 28 1
41 29 1
41 30 1
41 31 2
41 34 3
41 37 2
41 40 3
42 0 3
42 1 5
42 2 1
42 3 4
42 4 2
42 5 3
42 8 3
42 9 3
42 14 1
42 15 2
42 17 1
42 20 1
42 22 1
42 24 1
42 27 1
42 28 1
42 29 4
42 31 1
42 33 5
42 34 5
42 35 5
42 36 4
42 38 4
42 39 1
43 0 1
43 2 3
43 3 3
43 5 2
43 7 2
43 8 1
43 9 4
43 10 5
43 11 4
43 12 2
43 13 5
43 15 3
43 16 1
43 18 1
43 20 4
43 23 3
43 24 3
43 31 1
43 33 4
43 34 1
43 36 4
43 37 3
43 38 1
43 39 5
43 40 2
43 41 4
43 42 1
44 0 1
44 1 4
44 2 4
44 3 3
44 6 5
44 12 4
44 15 5
44 16 3
44 19 3
44 20 3
44 22 2
44 23 4
44 26 5
44 27 1
44 28 5
44 29 5
44 30 3
44 32 4
44 33 1
44 36 1
44 37 5
44 39 2
44 40 3
44 41 3
44 42 3
45 2 5
45 4 2
45 6 4
45 9 5
45 10 4
45 11 2
45 14 4
45 18 1
45 19 1
45 21 3
45 22 1
45 27 1
45 28 3
45 29 4
45 30 1
45 33 1
45 35 3
45 36 5
45 40 4
45 41 4
46 3 5
46 4 1
46 5 2
46 7 5
46 14 3
46 17 4
46 20 2
46 22 5
46 24 1
46 28 1
46 31 1
46 35 5
46 36 5
46 37 1
46 40 2
46 42 4
46 45 3
47 0 3
47 2 3
47 3 4
47 5 2
47 6 1
47 7 2
47 8 5
47 12 2
47 13 2
47 16 1
47 17 4
47 19 5
47 22 5
47 25 2
47 26 3
47 27 1
47 28 3
47 31 2
47 32 1
47 33 4
47 37 1
47 43 4
48 0 3
48 4 5
48 5 2
48 6 5
48 7 2
48 11 3
48 16 3
48 18 3
48 19 3
48 23 5
48 25 2
48 27 5
48 29 5
48 30 2
48 31 2
48 33 3
48 34 1
48 36 2
48 41 5
48 42 5
48 43 3
48 44 1
49 4 1
49 5 4
49 9 2
49 11 3
49 13 5
49 15 2
49 16 2
49 18 3
49 19 1
49 20 4
49 22 5
49 25 5
49 29 3
49 32 3
49 33 2
49 36 4
49 40 2
49 46 1
50 1 5
50 2 5
50 3 3
50 4 1
50 5 5
50 6 5
50 8 3
50 9 2
50 11 5
50 12 1
50 15 2
50 16 5
50 24 5
50 25 2
50 26 5
50 27 5
50 28 1
50 32 4
50 37 4
50 40 5
50 43 4
50 45 3
50 46 2
50 48 1
50 49 5
51 2 1
51 3 5
51 4 4
51 6 4
51 9 2
51 10 5
51 11 1
51 12 4
51 13 1
51 19 3
51 20 3
51 22 2
51 27 4
51 30 3
51 35 4
51 41 1
51 47 4
51 48 4
51 50 4
52 0 1
52 1 2
52 2 2
52 4 4
52 5 3
52 9 1
52 10 5
52 12 5
52 15 3
52 16 2
52 17 5
52 19 5
52 20 1
52 21 2
52 23 2
52 27 1
52 30 4
52 31 4
52 32 5
52 35 3
52 41 4
52 42 1
52 46 3
52 47 4
52 49 1
52 50 1
53 0 5
53 1 3
53 5 3
53 8 2
53 12 3
53 19 1
53 21 2
53 22 2
53 25 4
53 27 3
53 29 4
53 30 5
53 35 3
53 37 5
53 39 5
53 42 1
53 44 1
53 46 1
53 47 4
53 48 1
53 51 3
54 2 3
54 4 2
54 8 1
54 14 5
54 15 2
54 16 1
54 17 3
54 19 4
54 22 1
54 25 1
54 26 3
54 27 5
54 32 4
54 33 1
54 34 4
54 37 1
54 38 5
54 39 4
54 42 2
54 45 3
54 47 4
54 49 4
54 50 5
54 52 5
54 53 4
